dimacs/unsat_v10_c33.dimacs
c NeuroCodeBench 2.0 CNF formula with verdict Unsat
p cnf 10 33
1 7 -5 0
-1 -7 -5 4 0
-1 7 -10 -9 5 6 0
-1 7 -10 -9 5 -6 4 -3 -8 0
1 -7 10 6 0
-1 7 -10 9 -8 -6 -4 0
-1 7 -10 -9 5 -6 4 3 8 0
-1 7 10 3 5 0
-1 -7 5 -10 0
-1 7 -10 9 -8 6 3 0
-1 7 -10 -9 5 -6 4 3 -8 0
-1 7 10 -3 -6 9 5 -4 0
-1 7 -10 9 -8 6 -3 5 0
-1 7 10 3 -5 0
-1 7 -10 -9 5 -6 -4 0
1 -7 -10 5 0
-1 7 10 -3 -6 -9 5 0
-1 7 10 -3 6 0
-1 7 -10 9 -8 -6 4 0
1 -7 10 -6 -9 0
-1 -7 -5 -4 0
-1 7 10 -3 -6 9 -5 0
-1 -7 5 10 0
-1 7 -10 -9 -5 -6 0
-1 7 -10 9 -8 6 -3 -5 0
1 -7 10 -6 9 0
1 7 5 0
-1 7 10 -3 -6 -9 -5 0
-1 7 -10 -9 -5 6 0
1 -7 -10 -5 0
-1 7 10 -3 -6 9 5 4 0
-1 7 -10 9 8 0
-1 7 -10 -9 5 -6 4 -3 8 0
