smt/unsat_v10_c33.smt2
(set-logic QF_NRA)
(declare-const X_0 Real)
(declare-const X_1 Real)
(declare-const X_2 Real)
(declare-const X_3 Real)
(declare-const X_4 Real)
(declare-const X_5 Real)
(declare-const X_6 Real)
(declare-const X_7 Real)
(declare-const X_8 Real)
(declare-const X_9 Real)
(declare-const H_0_0 Real)
(declare-const H_0_1 Real)
(declare-const H_0_2 Real)
(declare-const H_0_3 Real)
(declare-const H_0_4 Real)
(declare-const H_0_5 Real)
(declare-const H_0_6 Real)
(declare-const H_0_7 Real)
(declare-const H_0_8 Real)
(declare-const H_0_9 Real)
(declare-const H_0_10 Real)
(declare-const H_0_11 Real)
(declare-const H_0_12 Real)
(declare-const H_0_13 Real)
(declare-const H_0_14 Real)
(declare-const H_0_15 Real)
(declare-const H_0_16 Real)
(declare-const H_0_17 Real)
(declare-const H_0_18 Real)
(declare-const H_0_19 Real)
(declare-const H_0_20 Real)
(declare-const H_0_21 Real)
(declare-const H_0_22 Real)
(declare-const H_0_23 Real)
(declare-const H_0_24 Real)
(declare-const H_0_25 Real)
(declare-const H_0_26 Real)
(declare-const H_0_27 Real)
(declare-const H_0_28 Real)
(declare-const H_0_29 Real)
(declare-const H_0_30 Real)
(declare-const H_0_31 Real)
(declare-const H_0_32 Real)
(declare-const H_0_33 Real)
(declare-const H_0_34 Real)
(declare-const H_0_35 Real)
(declare-const H_0_36 Real)
(declare-const H_0_37 Real)
(declare-const H_0_38 Real)
(declare-const H_0_39 Real)
(declare-const H_0_40 Real)
(declare-const H_0_41 Real)
(declare-const H_0_42 Real)
(declare-const H_0_43 Real)
(declare-const H_0_44 Real)
(declare-const H_0_45 Real)
(declare-const H_0_46 Real)
(declare-const H_0_47 Real)
(declare-const H_0_48 Real)
(declare-const H_0_49 Real)
(declare-const H_0_50 Real)
(declare-const H_0_51 Real)
(declare-const H_0_52 Real)
(assert (= H_0_0 (ite (>= (+ (* X_0 -1.0) (* X_1 0.0) (* X_2 0.0) (* X_3 0.0) (* X_4 1.0) (* X_5 0.0) (* X_6 -1.0) (* X_7 0.0) (* X_8 0.0) (* X_9 0.0) 0.0) 0) (+ (* X_0 -1.0) (* X_1 0.0) (* X_2 0.0) (* X_3 0.0) (* X_4 1.0) (* X_5 0.0) (* X_6 -1.0) (* X_7 0.0) (* X_8 0.0) (* X_9 0.0) 0.0) 0)))
(assert (= H_0_1 (ite (>= (+ (* X_0 1.0) (* X_1 0.0) (* X_2 0.0) (* X_3 -1.0) (* X_4 1.0) (* X_5 0.0) (* X_6 1.0) (* X_7 0.0) (* X_8 0.0) (* X_9 0.0) -2.0) 0) (+ (* X_0 1.0) (* X_1 0.0) (* X_2 0.0) (* X_3 -1.0) (* X_4 1.0) (* X_5 0.0) (* X_6 1.0) (* X_7 0.0) (* X_8 0.0) (* X_9 0.0) -2.0) 0)))
(assert (= H_0_2 (ite (>= (+ (* X_0 1.0) (* X_1 0.0) (* X_2 0.0) (* X_3 0.0) (* X_4 -1.0) (* X_5 -1.0) (* X_6 -1.0) (* X_7 0.0) (* X_8 1.0) (* X_9 1.0) -2.0) 0) (+ (* X_0 1.0) (* X_1 0.0) (* X_2 0.0) (* X_3 0.0) (* X_4 -1.0) (* X_5 -1.0) (* X_6 -1.0) (* X_7 0.0) (* X_8 1.0) (* X_9 1.0) -2.0) 0)))
(assert (= H_0_3 (ite (>= (+ (* X_0 1.0) (* X_1 0.0) (* X_2 1.0) (* X_3 -1.0) (* X_4 -1.0) (* X_5 1.0) (* X_6 -1.0) (* X_7 1.0) (* X_8 1.0) (* X_9 1.0) -5.0) 0) (+ (* X_0 1.0) (* X_1 0.0) (* X_2 1.0) (* X_3 -1.0) (* X_4 -1.0) (* X_5 1.0) (* X_6 -1.0) (* X_7 1.0) (* X_8 1.0) (* X_9 1.0) -5.0) 0)))
(assert (= H_0_4 (ite (>= (+ (* X_0 -1.0) (* X_1 0.0) (* X_2 0.0) (* X_3 0.0) (* X_4 0.0) (* X_5 -1.0) (* X_6 1.0) (* X_7 0.0) (* X_8 0.0) (* X_9 -1.0) 0.0) 0) (+ (* X_0 -1.0) (* X_1 0.0) (* X_2 0.0) (* X_3 0.0) (* X_4 0.0) (* X_5 -1.0) (* X_6 1.0) (* X_7 0.0) (* X_8 0.0) (* X_9 -1.0) 0.0) 0)))
(assert (= H_0_5 (ite (>= (+ (* X_0 1.0) (* X_1 0.0) (* X_2 0.0) (* X_3 1.0) (* X_4 0.0) (* X_5 1.0) (* X_6 -1.0) (* X_7 1.0) (* X_8 -1.0) (* X_9 1.0) -4.0) 0) (+ (* X_0 1.0) (* X_1 0.0) (* X_2 0.0) (* X_3 1.0) (* X_4 0.0) (* X_5 1.0) (* X_6 -1.0) (* X_7 1.0) (* X_8 -1.0) (* X_9 1.0) -4.0) 0)))
(assert (= H_0_6 (ite (>= (+ (* X_0 1.0) (* X_1 0.0) (* X_2 -1.0) (* X_3 -1.0) (* X_4 -1.0) (* X_5 1.0) (* X_6 -1.0) (* X_7 -1.0) (* X_8 1.0) (* X_9 1.0) -3.0) 0) (+ (* X_0 1.0) (* X_1 0.0) (* X_2 -1.0) (* X_3 -1.0) (* X_4 -1.0) (* X_5 1.0) (* X_6 -1.0) (* X_7 -1.0) (* X_8 1.0) (* X_9 1.0) -3.0) 0)))
(assert (= H_0_7 (ite (>= (+ (* X_0 1.0) (* X_1 0.0) (* X_2 -1.0) (* X_3 0.0) (* X_4 -1.0) (* X_5 0.0) (* X_6 -1.0) (* X_7 0.0) (* X_8 0.0) (* X_9 -1.0) 0.0) 0) (+ (* X_0 1.0) (* X_1 0.0) (* X_2 -1.0) (* X_3 0.0) (* X_4 -1.0) (* X_5 0.0) (* X_6 -1.0) (* X_7 0.0) (* X_8 0.0) (* X_9 -1.0) 0.0) 0)))
(assert (= H_0_8 (ite (>= (+ (* X_0 1.0) (* X_1 0.0) (* X_2 0.0) (* X_3 0.0) (* X_4 -1.0) (* X_5 0.0) (* X_6 1.0) (* X_7 0.0) (* X_8 0.0) (* X_9 1.0) -2.0) 0) (+ (* X_0 1.0) (* X_1 0.0) (* X_2 0.0) (* X_3 0.0) (* X_4 -1.0) (* X_5 0.0) (* X_6 1.0) (* X_7 0.0) (* X_8 0.0) (* X_9 1.0) -2.0) 0)))
(assert (= H_0_9 (ite (>= (+ (* X_0 1.0) (* X_1 0.0) (* X_2 -1.0) (* X_3 0.0) (* X_4 0.0) (* X_5 -1.0) (* X_6 -1.0) (* X_7 1.0) (* X_8 -1.0) (* X_9 1.0) -2.0) 0) (+ (* X_0 1.0) (* X_1 0.0) (* X_2 -1.0) (* X_3 0.0) (* X_4 0.0) (* X_5 -1.0) (* X_6 -1.0) (* X_7 1.0) (* X_8 -1.0) (* X_9 1.0) -2.0) 0)))
(assert (= H_0_10 (ite (>= (+ (* X_0 1.0) (* X_1 0.0) (* X_2 -1.0) (* X_3 -1.0) (* X_4 -1.0) (* X_5 1.0) (* X_6 -1.0) (* X_7 1.0) (* X_8 1.0) (* X_9 1.0) -4.0) 0) (+ (* X_0 1.0) (* X_1 0.0) (* X_2 -1.0) (* X_3 -1.0) (* X_4 -1.0) (* X_5 1.0) (* X_6 -1.0) (* X_7 1.0) (* X_8 1.0) (* X_9 1.0) -4.0) 0)))
(assert (= H_0_11 (ite (>= (+ (* X_0 1.0) (* X_1 0.0) (* X_2 1.0) (* X_3 1.0) (* X_4 -1.0) (* X_5 1.0) (* X_6 -1.0) (* X_7 0.0) (* X_8 -1.0) (* X_9 -1.0) -3.0) 0) (+ (* X_0 1.0) (* X_1 0.0) (* X_2 1.0) (* X_3 1.0) (* X_4 -1.0) (* X_5 1.0) (* X_6 -1.0) (* X_7 0.0) (* X_8 -1.0) (* X_9 -1.0) -3.0) 0)))
(assert (= H_0_12 (ite (>= (+ (* X_0 1.0) (* X_1 0.0) (* X_2 1.0) (* X_3 0.0) (* X_4 -1.0) (* X_5 -1.0) (* X_6 -1.0) (* X_7 1.0) (* X_8 -1.0) (* X_9 1.0) -3.0) 0) (+ (* X_0 1.0) (* X_1 0.0) (* X_2 1.0) (* X_3 0.0) (* X_4 -1.0) (* X_5 -1.0) (* X_6 -1.0) (* X_7 1.0) (* X_8 -1.0) (* X_9 1.0) -3.0) 0)))
(assert (= H_0_13 (ite (>= (+ (* X_0 1.0) (* X_1 0.0) (* X_2 -1.0) (* X_3 0.0) (* X_4 1.0) (* X_5 0.0) (* X_6 -1.0) (* X_7 0.0) (* X_8 0.0) (* X_9 -1.0) -1.0) 0) (+ (* X_0 1.0) (* X_1 0.0) (* X_2 -1.0) (* X_3 0.0) (* X_4 1.0) (* X_5 0.0) (* X_6 -1.0) (* X_7 0.0) (* X_8 0.0) (* X_9 -1.0) -1.0) 0)))
(assert (= H_0_14 (ite (>= (+ (* X_0 1.0) (* X_1 0.0) (* X_2 0.0) (* X_3 1.0) (* X_4 -1.0) (* X_5 1.0) (* X_6 -1.0) (* X_7 0.0) (* X_8 1.0) (* X_9 1.0) -4.0) 0) (+ (* X_0 1.0) (* X_1 0.0) (* X_2 0.0) (* X_3 1.0) (* X_4 -1.0) (* X_5 1.0) (* X_6 -1.0) (* X_7 0.0) (* X_8 1.0) (* X_9 1.0) -4.0) 0)))
(assert (= H_0_15 (ite (>= (+ (* X_0 -1.0) (* X_1 0.0) (* X_2 0.0) (* X_3 0.0) (* X_4 -1.0) (* X_5 0.0) (* X_6 1.0) (* X_7 0.0) (* X_8 0.0) (* X_9 1.0) -1.0) 0) (+ (* X_0 -1.0) (* X_1 0.0) (* X_2 0.0) (* X_3 0.0) (* X_4 -1.0) (* X_5 0.0) (* X_6 1.0) (* X_7 0.0) (* X_8 0.0) (* X_9 1.0) -1.0) 0)))
(assert (= H_0_16 (ite (>= (+ (* X_0 1.0) (* X_1 0.0) (* X_2 1.0) (* X_3 0.0) (* X_4 -1.0) (* X_5 1.0) (* X_6 -1.0) (* X_7 0.0) (* X_8 1.0) (* X_9 -1.0) -3.0) 0) (+ (* X_0 1.0) (* X_1 0.0) (* X_2 1.0) (* X_3 0.0) (* X_4 -1.0) (* X_5 1.0) (* X_6 -1.0) (* X_7 0.0) (* X_8 1.0) (* X_9 -1.0) -3.0) 0)))
(assert (= H_0_17 (ite (>= (+ (* X_0 1.0) (* X_1 0.0) (* X_2 1.0) (* X_3 0.0) (* X_4 0.0) (* X_5 -1.0) (* X_6 -1.0) (* X_7 0.0) (* X_8 0.0) (* X_9 -1.0) -1.0) 0) (+ (* X_0 1.0) (* X_1 0.0) (* X_2 1.0) (* X_3 0.0) (* X_4 0.0) (* X_5 -1.0) (* X_6 -1.0) (* X_7 0.0) (* X_8 0.0) (* X_9 -1.0) -1.0) 0)))
(assert (= H_0_18 (ite (>= (+ (* X_0 1.0) (* X_1 0.0) (* X_2 0.0) (* X_3 -1.0) (* X_4 0.0) (* X_5 1.0) (* X_6 -1.0) (* X_7 1.0) (* X_8 -1.0) (* X_9 1.0) -3.0) 0) (+ (* X_0 1.0) (* X_1 0.0) (* X_2 0.0) (* X_3 -1.0) (* X_4 0.0) (* X_5 1.0) (* X_6 -1.0) (* X_7 1.0) (* X_8 -1.0) (* X_9 1.0) -3.0) 0)))
(assert (= H_0_19 (ite (>= (+ (* X_0 -1.0) (* X_1 0.0) (* X_2 0.0) (* X_3 0.0) (* X_4 0.0) (* X_5 1.0) (* X_6 1.0) (* X_7 0.0) (* X_8 1.0) (* X_9 -1.0) -2.0) 0) (+ (* X_0 -1.0) (* X_1 0.0) (* X_2 0.0) (* X_3 0.0) (* X_4 0.0) (* X_5 1.0) (* X_6 1.0) (* X_7 0.0) (* X_8 1.0) (* X_9 -1.0) -2.0) 0)))
(assert (= H_0_20 (ite (>= (+ (* X_0 1.0) (* X_1 0.0) (* X_2 0.0) (* X_3 1.0) (* X_4 1.0) (* X_5 0.0) (* X_6 1.0) (* X_7 0.0) (* X_8 0.0) (* X_9 0.0) -3.0) 0) (+ (* X_0 1.0) (* X_1 0.0) (* X_2 0.0) (* X_3 1.0) (* X_4 1.0) (* X_5 0.0) (* X_6 1.0) (* X_7 0.0) (* X_8 0.0) (* X_9 0.0) -3.0) 0)))
(assert (= H_0_21 (ite (>= (+ (* X_0 1.0) (* X_1 0.0) (* X_2 1.0) (* X_3 0.0) (* X_4 1.0) (* X_5 1.0) (* X_6 -1.0) (* X_7 0.0) (* X_8 -1.0) (* X_9 -1.0) -3.0) 0) (+ (* X_0 1.0) (* X_1 0.0) (* X_2 1.0) (* X_3 0.0) (* X_4 1.0) (* X_5 1.0) (* X_6 -1.0) (* X_7 0.0) (* X_8 -1.0) (* X_9 -1.0) -3.0) 0)))
(assert (= H_0_22 (ite (>= (+ (* X_0 1.0) (* X_1 0.0) (* X_2 0.0) (* X_3 0.0) (* X_4 -1.0) (* X_5 0.0) (* X_6 1.0) (* X_7 0.0) (* X_8 0.0) (* X_9 -1.0) -1.0) 0) (+ (* X_0 1.0) (* X_1 0.0) (* X_2 0.0) (* X_3 0.0) (* X_4 -1.0) (* X_5 0.0) (* X_6 1.0) (* X_7 0.0) (* X_8 0.0) (* X_9 -1.0) -1.0) 0)))
(assert (= H_0_23 (ite (>= (+ (* X_0 1.0) (* X_1 0.0) (* X_2 0.0) (* X_3 0.0) (* X_4 1.0) (* X_5 1.0) (* X_6 -1.0) (* X_7 0.0) (* X_8 1.0) (* X_9 1.0) -4.0) 0) (+ (* X_0 1.0) (* X_1 0.0) (* X_2 0.0) (* X_3 0.0) (* X_4 1.0) (* X_5 1.0) (* X_6 -1.0) (* X_7 0.0) (* X_8 1.0) (* X_9 1.0) -4.0) 0)))
(assert (= H_0_24 (ite (>= (+ (* X_0 1.0) (* X_1 0.0) (* X_2 1.0) (* X_3 0.0) (* X_4 1.0) (* X_5 -1.0) (* X_6 -1.0) (* X_7 1.0) (* X_8 -1.0) (* X_9 1.0) -4.0) 0) (+ (* X_0 1.0) (* X_1 0.0) (* X_2 1.0) (* X_3 0.0) (* X_4 1.0) (* X_5 -1.0) (* X_6 -1.0) (* X_7 1.0) (* X_8 -1.0) (* X_9 1.0) -4.0) 0)))
(assert (= H_0_25 (ite (>= (+ (* X_0 -1.0) (* X_1 0.0) (* X_2 0.0) (* X_3 0.0) (* X_4 0.0) (* X_5 1.0) (* X_6 1.0) (* X_7 0.0) (* X_8 -1.0) (* X_9 -1.0) -1.0) 0) (+ (* X_0 -1.0) (* X_1 0.0) (* X_2 0.0) (* X_3 0.0) (* X_4 0.0) (* X_5 1.0) (* X_6 1.0) (* X_7 0.0) (* X_8 -1.0) (* X_9 -1.0) -1.0) 0)))
(assert (= H_0_26 (ite (>= (+ (* X_0 -1.0) (* X_1 0.0) (* X_2 0.0) (* X_3 0.0) (* X_4 -1.0) (* X_5 0.0) (* X_6 -1.0) (* X_7 0.0) (* X_8 0.0) (* X_9 0.0) 1.0) 0) (+ (* X_0 -1.0) (* X_1 0.0) (* X_2 0.0) (* X_3 0.0) (* X_4 -1.0) (* X_5 0.0) (* X_6 -1.0) (* X_7 0.0) (* X_8 0.0) (* X_9 0.0) 1.0) 0)))
(assert (= H_0_27 (ite (>= (+ (* X_0 1.0) (* X_1 0.0) (* X_2 1.0) (* X_3 0.0) (* X_4 1.0) (* X_5 1.0) (* X_6 -1.0) (* X_7 0.0) (* X_8 1.0) (* X_9 -1.0) -4.0) 0) (+ (* X_0 1.0) (* X_1 0.0) (* X_2 1.0) (* X_3 0.0) (* X_4 1.0) (* X_5 1.0) (* X_6 -1.0) (* X_7 0.0) (* X_8 1.0) (* X_9 -1.0) -4.0) 0)))
(assert (= H_0_28 (ite (>= (+ (* X_0 1.0) (* X_1 0.0) (* X_2 0.0) (* X_3 0.0) (* X_4 1.0) (* X_5 -1.0) (* X_6 -1.0) (* X_7 0.0) (* X_8 1.0) (* X_9 1.0) -3.0) 0) (+ (* X_0 1.0) (* X_1 0.0) (* X_2 0.0) (* X_3 0.0) (* X_4 1.0) (* X_5 -1.0) (* X_6 -1.0) (* X_7 0.0) (* X_8 1.0) (* X_9 1.0) -3.0) 0)))
(assert (= H_0_29 (ite (>= (+ (* X_0 -1.0) (* X_1 0.0) (* X_2 0.0) (* X_3 0.0) (* X_4 1.0) (* X_5 0.0) (* X_6 1.0) (* X_7 0.0) (* X_8 0.0) (* X_9 1.0) -2.0) 0) (+ (* X_0 -1.0) (* X_1 0.0) (* X_2 0.0) (* X_3 0.0) (* X_4 1.0) (* X_5 0.0) (* X_6 1.0) (* X_7 0.0) (* X_8 0.0) (* X_9 1.0) -2.0) 0)))
(assert (= H_0_30 (ite (>= (+ (* X_0 1.0) (* X_1 0.0) (* X_2 1.0) (* X_3 -1.0) (* X_4 -1.0) (* X_5 1.0) (* X_6 -1.0) (* X_7 0.0) (* X_8 -1.0) (* X_9 -1.0) -2.0) 0) (+ (* X_0 1.0) (* X_1 0.0) (* X_2 1.0) (* X_3 -1.0) (* X_4 -1.0) (* X_5 1.0) (* X_6 -1.0) (* X_7 0.0) (* X_8 -1.0) (* X_9 -1.0) -2.0) 0)))
(assert (= H_0_31 (ite (>= (+ (* X_0 1.0) (* X_1 0.0) (* X_2 0.0) (* X_3 0.0) (* X_4 0.0) (* X_5 0.0) (* X_6 -1.0) (* X_7 -1.0) (* X_8 -1.0) (* X_9 1.0) -1.0) 0) (+ (* X_0 1.0) (* X_1 0.0) (* X_2 0.0) (* X_3 0.0) (* X_4 0.0) (* X_5 0.0) (* X_6 -1.0) (* X_7 -1.0) (* X_8 -1.0) (* X_9 1.0) -1.0) 0)))
(assert (= H_0_32 (ite (>= (+ (* X_0 1.0) (* X_1 0.0) (* X_2 1.0) (* X_3 -1.0) (* X_4 -1.0) (* X_5 1.0) (* X_6 -1.0) (* X_7 -1.0) (* X_8 1.0) (* X_9 1.0) -4.0) 0) (+ (* X_0 1.0) (* X_1 0.0) (* X_2 1.0) (* X_3 -1.0) (* X_4 -1.0) (* X_5 1.0) (* X_6 -1.0) (* X_7 -1.0) (* X_8 1.0) (* X_9 1.0) -4.0) 0)))
(assert (= H_0_33 (ite (>= (+ (* X_0 1.0) (* X_1 0.0) (* X_2 0.0) (* X_3 0.0) (* X_4 0.0) (* X_5 0.0) (* X_6 0.0) (* X_7 0.0) (* X_8 0.0) (* X_9 0.0) 0.0) 0) (+ (* X_0 1.0) (* X_1 0.0) (* X_2 0.0) (* X_3 0.0) (* X_4 0.0) (* X_5 0.0) (* X_6 0.0) (* X_7 0.0) (* X_8 0.0) (* X_9 0.0) 0.0) 0)))
(assert (= H_0_34 (ite (>= (+ (* X_0 0.0) (* X_1 1.0) (* X_2 0.0) (* X_3 0.0) (* X_4 0.0) (* X_5 0.0) (* X_6 0.0) (* X_7 0.0) (* X_8 0.0) (* X_9 0.0) 0.0) 0) (+ (* X_0 0.0) (* X_1 1.0) (* X_2 0.0) (* X_3 0.0) (* X_4 0.0) (* X_5 0.0) (* X_6 0.0) (* X_7 0.0) (* X_8 0.0) (* X_9 0.0) 0.0) 0)))
(assert (= H_0_35 (ite (>= (+ (* X_0 0.0) (* X_1 0.0) (* X_2 1.0) (* X_3 0.0) (* X_4 0.0) (* X_5 0.0) (* X_6 0.0) (* X_7 0.0) (* X_8 0.0) (* X_9 0.0) 0.0) 0) (+ (* X_0 0.0) (* X_1 0.0) (* X_2 1.0) (* X_3 0.0) (* X_4 0.0) (* X_5 0.0) (* X_6 0.0) (* X_7 0.0) (* X_8 0.0) (* X_9 0.0) 0.0) 0)))
(assert (= H_0_36 (ite (>= (+ (* X_0 0.0) (* X_1 0.0) (* X_2 0.0) (* X_3 1.0) (* X_4 0.0) (* X_5 0.0) (* X_6 0.0) (* X_7 0.0) (* X_8 0.0) (* X_9 0.0) 0.0) 0) (+ (* X_0 0.0) (* X_1 0.0) (* X_2 0.0) (* X_3 1.0) (* X_4 0.0) (* X_5 0.0) (* X_6 0.0) (* X_7 0.0) (* X_8 0.0) (* X_9 0.0) 0.0) 0)))
(assert (= H_0_37 (ite (>= (+ (* X_0 0.0) (* X_1 0.0) (* X_2 0.0) (* X_3 0.0) (* X_4 1.0) (* X_5 0.0) (* X_6 0.0) (* X_7 0.0) (* X_8 0.0) (* X_9 0.0) 0.0) 0) (+ (* X_0 0.0) (* X_1 0.0) (* X_2 0.0) (* X_3 0.0) (* X_4 1.0) (* X_5 0.0) (* X_6 0.0) (* X_7 0.0) (* X_8 0.0) (* X_9 0.0) 0.0) 0)))
(assert (= H_0_38 (ite (>= (+ (* X_0 0.0) (* X_1 0.0) (* X_2 0.0) (* X_3 0.0) (* X_4 0.0) (* X_5 1.0) (* X_6 0.0) (* X_7 0.0) (* X_8 0.0) (* X_9 0.0) 0.0) 0) (+ (* X_0 0.0) (* X_1 0.0) (* X_2 0.0) (* X_3 0.0) (* X_4 0.0) (* X_5 1.0) (* X_6 0.0) (* X_7 0.0) (* X_8 0.0) (* X_9 0.0) 0.0) 0)))
(assert (= H_0_39 (ite (>= (+ (* X_0 0.0) (* X_1 0.0) (* X_2 0.0) (* X_3 0.0) (* X_4 0.0) (* X_5 0.0) (* X_6 1.0) (* X_7 0.0) (* X_8 0.0) (* X_9 0.0) 0.0) 0) (+ (* X_0 0.0) (* X_1 0.0) (* X_2 0.0) (* X_3 0.0) (* X_4 0.0) (* X_5 0.0) (* X_6 1.0) (* X_7 0.0) (* X_8 0.0) (* X_9 0.0) 0.0) 0)))
(assert (= H_0_40 (ite (>= (+ (* X_0 0.0) (* X_1 0.0) (* X_2 0.0) (* X_3 0.0) (* X_4 0.0) (* X_5 0.0) (* X_6 0.0) (* X_7 1.0) (* X_8 0.0) (* X_9 0.0) 0.0) 0) (+ (* X_0 0.0) (* X_1 0.0) (* X_2 0.0) (* X_3 0.0) (* X_4 0.0) (* X_5 0.0) (* X_6 0.0) (* X_7 1.0) (* X_8 0.0) (* X_9 0.0) 0.0) 0)))
(assert (= H_0_41 (ite (>= (+ (* X_0 0.0) (* X_1 0.0) (* X_2 0.0) (* X_3 0.0) (* X_4 0.0) (* X_5 0.0) (* X_6 0.0) (* X_7 0.0) (* X_8 1.0) (* X_9 0.0) 0.0) 0) (+ (* X_0 0.0) (* X_1 0.0) (* X_2 0.0) (* X_3 0.0) (* X_4 0.0) (* X_5 0.0) (* X_6 0.0) (* X_7 0.0) (* X_8 1.0) (* X_9 0.0) 0.0) 0)))
(assert (= H_0_42 (ite (>= (+ (* X_0 0.0) (* X_1 0.0) (* X_2 0.0) (* X_3 0.0) (* X_4 0.0) (* X_5 0.0) (* X_6 0.0) (* X_7 0.0) (* X_8 0.0) (* X_9 1.0) 0.0) 0) (+ (* X_0 0.0) (* X_1 0.0) (* X_2 0.0) (* X_3 0.0) (* X_4 0.0) (* X_5 0.0) (* X_6 0.0) (* X_7 0.0) (* X_8 0.0) (* X_9 1.0) 0.0) 0)))
(assert (= H_0_43 (ite (>= (+ (* X_0 2.0) (* X_1 0.0) (* X_2 0.0) (* X_3 0.0) (* X_4 0.0) (* X_5 0.0) (* X_6 0.0) (* X_7 0.0) (* X_8 0.0) (* X_9 0.0) -1.0) 0) (+ (* X_0 2.0) (* X_1 0.0) (* X_2 0.0) (* X_3 0.0) (* X_4 0.0) (* X_5 0.0) (* X_6 0.0) (* X_7 0.0) (* X_8 0.0) (* X_9 0.0) -1.0) 0)))
(assert (= H_0_44 (ite (>= (+ (* X_0 0.0) (* X_1 2.0) (* X_2 0.0) (* X_3 0.0) (* X_4 0.0) (* X_5 0.0) (* X_6 0.0) (* X_7 0.0) (* X_8 0.0) (* X_9 0.0) -1.0) 0) (+ (* X_0 0.0) (* X_1 2.0) (* X_2 0.0) (* X_3 0.0) (* X_4 0.0) (* X_5 0.0) (* X_6 0.0) (* X_7 0.0) (* X_8 0.0) (* X_9 0.0) -1.0) 0)))
(assert (= H_0_45 (ite (>= (+ (* X_0 0.0) (* X_1 0.0) (* X_2 2.0) (* X_3 0.0) (* X_4 0.0) (* X_5 0.0) (* X_6 0.0) (* X_7 0.0) (* X_8 0.0) (* X_9 0.0) -1.0) 0) (+ (* X_0 0.0) (* X_1 0.0) (* X_2 2.0) (* X_3 0.0) (* X_4 0.0) (* X_5 0.0) (* X_6 0.0) (* X_7 0.0) (* X_8 0.0) (* X_9 0.0) -1.0) 0)))
(assert (= H_0_46 (ite (>= (+ (* X_0 0.0) (* X_1 0.0) (* X_2 0.0) (* X_3 2.0) (* X_4 0.0) (* X_5 0.0) (* X_6 0.0) (* X_7 0.0) (* X_8 0.0) (* X_9 0.0) -1.0) 0) (+ (* X_0 0.0) (* X_1 0.0) (* X_2 0.0) (* X_3 2.0) (* X_4 0.0) (* X_5 0.0) (* X_6 0.0) (* X_7 0.0) (* X_8 0.0) (* X_9 0.0) -1.0) 0)))
(assert (= H_0_47 (ite (>= (+ (* X_0 0.0) (* X_1 0.0) (* X_2 0.0) (* X_3 0.0) (* X_4 2.0) (* X_5 0.0) (* X_6 0.0) (* X_7 0.0) (* X_8 0.0) (* X_9 0.0) -1.0) 0) (+ (* X_0 0.0) (* X_1 0.0) (* X_2 0.0) (* X_3 0.0) (* X_4 2.0) (* X_5 0.0) (* X_6 0.0) (* X_7 0.0) (* X_8 0.0) (* X_9 0.0) -1.0) 0)))
(assert (= H_0_48 (ite (>= (+ (* X_0 0.0) (* X_1 0.0) (* X_2 0.0) (* X_3 0.0) (* X_4 0.0) (* X_5 2.0) (* X_6 0.0) (* X_7 0.0) (* X_8 0.0) (* X_9 0.0) -1.0) 0) (+ (* X_0 0.0) (* X_1 0.0) (* X_2 0.0) (* X_3 0.0) (* X_4 0.0) (* X_5 2.0) (* X_6 0.0) (* X_7 0.0) (* X_8 0.0) (* X_9 0.0) -1.0) 0)))
(assert (= H_0_49 (ite (>= (+ (* X_0 0.0) (* X_1 0.0) (* X_2 0.0) (* X_3 0.0) (* X_4 0.0) (* X_5 0.0) (* X_6 2.0) (* X_7 0.0) (* X_8 0.0) (* X_9 0.0) -1.0) 0) (+ (* X_0 0.0) (* X_1 0.0) (* X_2 0.0) (* X_3 0.0) (* X_4 0.0) (* X_5 0.0) (* X_6 2.0) (* X_7 0.0) (* X_8 0.0) (* X_9 0.0) -1.0) 0)))
(assert (= H_0_50 (ite (>= (+ (* X_0 0.0) (* X_1 0.0) (* X_2 0.0) (* X_3 0.0) (* X_4 0.0) (* X_5 0.0) (* X_6 0.0) (* X_7 2.0) (* X_8 0.0) (* X_9 0.0) -1.0) 0) (+ (* X_0 0.0) (* X_1 0.0) (* X_2 0.0) (* X_3 0.0) (* X_4 0.0) (* X_5 0.0) (* X_6 0.0) (* X_7 2.0) (* X_8 0.0) (* X_9 0.0) -1.0) 0)))
(assert (= H_0_51 (ite (>= (+ (* X_0 0.0) (* X_1 0.0) (* X_2 0.0) (* X_3 0.0) (* X_4 0.0) (* X_5 0.0) (* X_6 0.0) (* X_7 0.0) (* X_8 2.0) (* X_9 0.0) -1.0) 0) (+ (* X_0 0.0) (* X_1 0.0) (* X_2 0.0) (* X_3 0.0) (* X_4 0.0) (* X_5 0.0) (* X_6 0.0) (* X_7 0.0) (* X_8 2.0) (* X_9 0.0) -1.0) 0)))
(assert (= H_0_52 (ite (>= (+ (* X_0 0.0) (* X_1 0.0) (* X_2 0.0) (* X_3 0.0) (* X_4 0.0) (* X_5 0.0) (* X_6 0.0) (* X_7 0.0) (* X_8 0.0) (* X_9 2.0) -1.0) 0) (+ (* X_0 0.0) (* X_1 0.0) (* X_2 0.0) (* X_3 0.0) (* X_4 0.0) (* X_5 0.0) (* X_6 0.0) (* X_7 0.0) (* X_8 0.0) (* X_9 2.0) -1.0) 0)))
(declare-const H_2_0 Real)
(declare-const H_2_1 Real)
(assert (= H_2_0 (+ (* H_0_0 -1.0) (* H_0_1 -1.0) (* H_0_2 -1.0) (* H_0_3 -1.0) (* H_0_4 -1.0) (* H_0_5 -1.0) (* H_0_6 -1.0) (* H_0_7 -1.0) (* H_0_8 -1.0) (* H_0_9 -1.0) (* H_0_10 -1.0) (* H_0_11 -1.0) (* H_0_12 -1.0) (* H_0_13 -1.0) (* H_0_14 -1.0) (* H_0_15 -1.0) (* H_0_16 -1.0) (* H_0_17 -1.0) (* H_0_18 -1.0) (* H_0_19 -1.0) (* H_0_20 -1.0) (* H_0_21 -1.0) (* H_0_22 -1.0) (* H_0_23 -1.0) (* H_0_24 -1.0) (* H_0_25 -1.0) (* H_0_26 -1.0) (* H_0_27 -1.0) (* H_0_28 -1.0) (* H_0_29 -1.0) (* H_0_30 -1.0) (* H_0_31 -1.0) (* H_0_32 -1.0) (* H_0_33 0.0) (* H_0_34 0.0) (* H_0_35 0.0) (* H_0_36 0.0) (* H_0_37 0.0) (* H_0_38 0.0) (* H_0_39 0.0) (* H_0_40 0.0) (* H_0_41 0.0) (* H_0_42 0.0) (* H_0_43 0.0) (* H_0_44 0.0) (* H_0_45 0.0) (* H_0_46 0.0) (* H_0_47 0.0) (* H_0_48 0.0) (* H_0_49 0.0) (* H_0_50 0.0) (* H_0_51 0.0) (* H_0_52 0.0) 1.0)))
(assert (= H_2_1 (+ (* H_0_0 0.0) (* H_0_1 0.0) (* H_0_2 0.0) (* H_0_3 0.0) (* H_0_4 0.0) (* H_0_5 0.0) (* H_0_6 0.0) (* H_0_7 0.0) (* H_0_8 0.0) (* H_0_9 0.0) (* H_0_10 0.0) (* H_0_11 0.0) (* H_0_12 0.0) (* H_0_13 0.0) (* H_0_14 0.0) (* H_0_15 0.0) (* H_0_16 0.0) (* H_0_17 0.0) (* H_0_18 0.0) (* H_0_19 0.0) (* H_0_20 0.0) (* H_0_21 0.0) (* H_0_22 0.0) (* H_0_23 0.0) (* H_0_24 0.0) (* H_0_25 0.0) (* H_0_26 0.0) (* H_0_27 0.0) (* H_0_28 0.0) (* H_0_29 0.0) (* H_0_30 0.0) (* H_0_31 0.0) (* H_0_32 0.0) (* H_0_33 1.0) (* H_0_34 1.0) (* H_0_35 1.0) (* H_0_36 1.0) (* H_0_37 1.0) (* H_0_38 1.0) (* H_0_39 1.0) (* H_0_40 1.0) (* H_0_41 1.0) (* H_0_42 1.0) (* H_0_43 -1.0) (* H_0_44 -1.0) (* H_0_45 -1.0) (* H_0_46 -1.0) (* H_0_47 -1.0) (* H_0_48 -1.0) (* H_0_49 -1.0) (* H_0_50 -1.0) (* H_0_51 -1.0) (* H_0_52 -1.0) 0.0)))
(declare-const Y_0 Real)
(assert (= Y_0 H_2_0))
(declare-const Y_1 Real)
(assert (= Y_1 H_2_1))
(assert (<= X_0 1.0))
(assert (>= X_0 0.0))
(assert (<= X_1 1.0))
(assert (>= X_1 0.0))
(assert (<= X_2 1.0))
(assert (>= X_2 0.0))
(assert (<= X_3 1.0))
(assert (>= X_3 0.0))
(assert (<= X_4 1.0))
(assert (>= X_4 0.0))
(assert (<= X_5 1.0))
(assert (>= X_5 0.0))
(assert (<= X_6 1.0))
(assert (>= X_6 0.0))
(assert (<= X_7 1.0))
(assert (>= X_7 0.0))
(assert (<= X_8 1.0))
(assert (>= X_8 0.0))
(assert (<= X_9 1.0))
(assert (>= X_9 0.0))
(assert (>= Y_0 1.0))
(assert (<= Y_1 0.0))
(check-sat)
(get-model)